%chk=./Cu_NH3_4_opt.chk
%nproc=36
%mem=60GB
#p opt freq B3LYP/genecp nosymm

tetraamminecopper(II), illustrative geometry only

2 1
Cu      0.00000000      0.00000000      0.00000000
N       2.05000000      0.00000000      0.00000000
N       0.00000000      2.05000000      0.00000000
N      -2.05000000      0.00000000      0.00000000
N       0.00000000     -2.05000000      0.00000000
H       2.75000000      0.80000000      0.00000000
H       2.75000000     -0.40000000      0.69000000
H       2.75000000     -0.40000000     -0.69000000
H       0.80000000      2.75000000      0.00000000
H      -0.40000000      2.75000000      0.69000000
H      -0.40000000      2.75000000     -0.69000000
H      -2.75000000     -0.80000000      0.00000000
H      -2.75000000      0.40000000      0.69000000
H      -2.75000000      0.40000000     -0.69000000
H      -0.80000000     -2.75000000      0.00000000
H       0.40000000     -2.75000000      0.69000000
H       0.40000000     -2.75000000     -0.69000000

Cu 0
SDD
****
N H 0
6-31G(d)
****
Cu 0
SDD

